c leafs=68, vars=17, seed=1, tickle=None
p cnf 817 2197                                                                
e 18 19 20 21 22 23 24 25 26 27 28 29 30 31 32 33 34 35 36 37 38 39 40 41 42 43 44 45 46 47 48 49 50 51 52 53 54 55 56 57 58 59 60 61 62 63 64 65 66 67 68 69 70 71 72 73 74 75 76 77 78 79 80 81 82 83 84 85  0
a 1 2 3 4 5 6 7 8 9 10 11 12 13 14 15 16 17  0
e 86 87 88 89 90 91 92 93 94 95 96 97 98 99 100 101 102 103 104 105 106 107 108 109 110 111 112 113 114 115 116 117 118 119 120 121 122 123 124 125 126 127 128 129 130 131 132 133 134 135 136 137 138 139 140 141 142 143 144 145 146 147 148 149 150 151 152 153 154 155 156 157 158 159 160 161 162 163 164 165 166 167 168 169 170 171 172 173 174 175 176 177 178 179 180 181 182 183 184 185 186 187 188 189 190 191 192 193 194 195 196 197 198 199 200 201 202 203 204 205 206 207 208 209 210 211 212 213 214 215 216 217 218 219 220 221 222 223 224 225 226 227 228 229 230 231 232 233 234 235 236 237 238 239 240 241 242 243 244 245 246 247 248 249 250 251 252 253 254 255 256 257 258 259 260 261 262 263 264 265 266 267 268 269 270 271 272 273 274 275 276 277 278 279 280 281 282 283 284 285 286 287 288 289 290 291 292 293 294 295 296 297 298 299 300 301 302 303 304 305 306 307 308 309 310 311 312 313 314 315 316 317 318 319 320 321 322 323 324 325 326 327 328 329 330 331 332 333 334 335 336 337 338 339 340 341 342 343 344 345 346 347 348 349 350 351 352 353 354 355 356 357 358 359 360 361 362 363 364 365 366 367 368 369 370 371 372 373 374 375 376 377 378 379 380 381 382 383 384 385 386 387 388 389 390 391 392 393 394 395 396 397 398 399 400 401 402 403 404 405 406 407 408 409 410 411 412 413 414 415 416 417 418 419 420 421 422 423 424 425 426 427 428 429 430 431 432 433 434 435 436 437 438 439 440 441 442 443 444 445 446 447 448 449 450 451 452 453 454 455 456 457 458 459 460 461 462 463 464 465 466 467 468 469 470 471 472 473 474 475 476 477 478 479 480 481 482 483 484 485 486 487 488 489 490 491 492 493 494 495 496 497 498 499 500 501 502 503 504 505 506 507 508 509 510 511 512 513 514 515 516 517 518 519 520 521 522 523 524 525 526 527 528 529 530 531 532 533 534 535 536 537 538 539 540 541 542 543 544 545 546 547 548 549 550 551 552 553 554 555 556 557 558 559 560 561 562 563 564 565 566 567 568 569 570 571 572 573 574 575 576 577 578 579 580 581 582 583 584 585 586 587 588 589 590 591 592 593 594 595 596 597 598 599 600 601 602 603 604 605 606 607 608 609 610 611 612 613 614 615 616 617 618 619 620 621 622 623 624 625 626 627 628 629 630 631 632 633 634 635 636 637 638 639 640 641 642 643 644 645 646 647 648 649 650 651 652 653 654 655 656 657 658 659 660 661 662 663 664 665 666 667 668 669 670 671 672 673 674 675 676 677 678 679 680 681 682 683 684 685 686 687 688 689 690 691 692 693 694 695 696 697 698 699 700 701 702 703 704 705 706 707 708 709 710 711 712 713 714 715 716 717 718 719 720 721 722 723 724 725 726 727 728 729 730 731 732 733 734 735 736 737 738 739 740 741 742 743 744 745 746 747 748 749 750 751 752 753 754 755 756 757 758 759 760 761 762 763 764 765 766 767 768 769 770 771 772 773 774 775 776 777 778 779 780 781 782 783 784 785 786 787 788 789 790 791 792 793 794 795 796 797 798 799 800 801 802 803 804 805 806 807 808 809 810 811 812 813 814 815 816 817  0
817  0
86 10 -9  0
-86 -10  0
-86 9  0
87 9 -10  0
-87 -9  0
-87 10  0
-88 13 15  0
88 -13  0
88 -15  0
-89 -15 -13  0
89 15  0
89 13  0
-90 -15 12  0
90 15  0
90 -12  0
91 15 12  0
-91 -15  0
-91 -12  0
92 13 -15  0
-92 -13  0
-92 15  0
93 15 -13  0
-93 -15  0
-93 13  0
94 -5 -16  0
-94 5  0
-94 16  0
95 16 5  0
-95 -16  0
-95 -5  0
96 1 -10  0
-96 -1  0
-96 10  0
97 10 -1  0
-97 -10  0
-97 1  0
98 -11 -12  0
-98 11  0
-98 12  0
99 12 11  0
-99 -12  0
-99 -11  0
-100 -6 8  0
100 6  0
100 -8  0
-101 -8 6  0
101 8  0
101 -6  0
-102 -17 6  0
102 17  0
102 -6  0
-103 -16 3  0
103 16  0
103 -3  0
-104 -3 16  0
104 3  0
104 -16  0
-105 -4 17  0
105 4  0
105 -17  0
-106 -17 4  0
106 17  0
106 -4  0
-107 -16 -3  0
107 16  0
107 3  0
-108 3 16  0
108 -3  0
108 -16  0
109 11 -7  0
-109 -11  0
-109 7  0
110 7 -11  0
-110 -7  0
-110 11  0
-111 6 13  0
111 -6  0
111 -13  0
-112 -13 -6  0
112 13  0
112 6  0
113 -7 -12  0
-113 7  0
-113 12  0
114 12 7  0
-114 -12  0
-114 -7  0
115 12 -17  0
-115 -12  0
-115 17  0
116 6 -5  0
-116 -6  0
-116 5  0
117 5 -6  0
-117 -5  0
-117 6  0
118 -12 -17  0
-118 12  0
-118 17  0
119 12 -7  0
-119 -12  0
-119 7  0
120 7 -12  0
-120 -7  0
-120 12  0
-121 -12 -2  0
121 12  0
121 2  0
-122 2 12  0
122 -2  0
122 -12  0
123 14 5  0
-123 -14  0
-123 -5  0
124 -5 -14  0
-124 5  0
-124 14  0
125 13 3  0
-125 -13  0
-125 -3  0
126 -3 -13  0
-126 3  0
-126 13  0
127 14 -15  0
-127 -14  0
-127 15  0
128 15 -14  0
-128 -15  0
-128 14  0
-129 -7 17  0
129 7  0
129 -17  0
130 16 -9  0
-130 -16  0
-130 9  0
131 9 -16  0
-131 -9  0
-131 16  0
132 7 -1  0
-132 -7  0
-132 1  0
133 1 -7  0
-133 -1  0
-133 7  0
-134 -3 -2  0
134 3  0
134 2  0
135 14 -12  0
-135 -14  0
-135 12  0
136 12 -14  0
-136 -12  0
-136 14  0
137 -12 -14  0
-137 12  0
-137 14  0
138 14 12  0
-138 -14  0
-138 -12  0
-139 11 85  0
139 -11  0
139 -85  0
-140 -85 -14  0
140 85  0
140 14  0
-141 -84 -6  0
141 84  0
141 6  0
-142 12 84  0
142 -12  0
142 -84  0
-143 -82 -3  0
143 82  0
143 3  0
-144 -9 82  0
144 9  0
144 -82  0
-145 -13 83  0
145 13  0
145 -83  0
-146 -83 -2  0
146 83  0
146 2  0
-147 -81 15  0
147 81  0
147 -15  0
-148 13 81  0
148 -13  0
148 -81  0
149 77 9  0
-149 -77  0
-149 -9  0
150 1 -77  0
-150 -1  0
-150 77  0
151 -7 -78  0
-151 7  0
-151 78  0
152 78 3  0
-152 -78  0
-152 -3  0
153 80 8  0
-153 -80  0
-153 -8  0
154 -15 -80  0
-154 15  0
-154 80  0
155 -9 -79  0
-155 9  0
-155 79  0
156 79 -4  0
-156 -79  0
-156 4  0
-157 -16 75  0
157 16  0
157 -75  0
-158 -75 -1  0
158 75  0
158 1  0
-159 -76 9  0
159 76  0
159 -9  0
-160 2 76  0
160 -2  0
160 -76  0
-161 -4 73  0
161 4  0
161 -73  0
-162 -73 11  0
162 73  0
162 -11  0
-163 -74 10  0
163 74  0
163 -10  0
-164 -12 74  0
164 12  0
164 -74  0
165 69 -10  0
-165 -69  0
-165 10  0
166 13 -69  0
-166 -13  0
-166 69  0
167 70 -12  0
-167 -70  0
-167 12  0
168 3 -70  0
-168 -3  0
-168 70  0
-169 5 71  0
169 -5  0
169 -71  0
-170 -71 -10  0
170 71  0
170 10  0
-171 6 72  0
171 -6  0
171 -72  0
-172 -72 -7  0
172 72  0
172 7  0
-173 -61 -9  0
173 61  0
173 9  0
-174 -6 61  0
174 6  0
174 -61  0
-175 -60 2  0
175 60  0
175 -2  0
-176 5 60  0
176 -5  0
176 -60  0
-177 -17 64  0
177 17  0
177 -64  0
-178 -64 -16  0
178 64  0
178 16  0
-179 -5 63  0
179 5  0
179 -63  0
-180 -63 7  0
180 63  0
180 -7  0
-181 -62 15  0
181 62  0
181 -15  0
-182 -12 62  0
182 12  0
182 -62  0
-183 14 68  0
183 -14  0
183 -68  0
-184 -68 -8  0
184 68  0
184 8  0
-185 -67 -15  0
185 67  0
185 15  0
-186 -1 67  0
186 1  0
186 -67  0
-187 -66 -11  0
187 66  0
187 11  0
-188 -13 66  0
188 13  0
188 -66  0
-189 -65 -6  0
189 65  0
189 6  0
-190 -11 65  0
190 11  0
190 -65  0
191 -15 -58  0
-191 15  0
-191 58  0
192 58 -14  0
-192 -58  0
-192 14  0
193 -5 -59  0
-193 5  0
-193 59  0
194 59 11  0
-194 -59  0
-194 -11  0
-195 7 56  0
195 -7  0
195 -56  0
-196 -56 16  0
196 56  0
196 -16  0
-197 -10 57  0
197 10  0
197 -57  0
-198 -57 8  0
198 57  0
198 -8  0
199 53 -14  0
-199 -53  0
-199 14  0
200 -15 -53  0
-200 15  0
-200 53  0
201 52 14  0
-201 -52  0
-201 -14  0
202 -1 -52  0
-202 1  0
-202 52  0
203 2 -54  0
-203 -2  0
-203 54  0
204 54 11  0
-204 -54  0
-204 -11  0
205 -11 -55  0
-205 11  0
-205 55  0
206 55 12  0
-206 -55  0
-206 -12  0
207 27 -8  0
-207 -27  0
-207 8  0
208 4 -27  0
-208 -4  0
-208 27  0
209 17 -28  0
-209 -17  0
-209 28  0
210 28 14  0
-210 -28  0
-210 -14  0
211 30 7  0
-211 -30  0
-211 -7  0
212 16 -30  0
-212 -16  0
-212 30  0
213 29 3  0
-213 -29  0
-213 -3  0
214 12 -29  0
-214 -12  0
-214 29  0
-215 5 34  0
215 -5  0
215 -34  0
-216 -34 10  0
216 34  0
216 -10  0
-217 4 33  0
217 -4  0
217 -33  0
-218 -33 -6  0
218 33  0
218 6  0
-219 -17 32  0
219 17  0
219 -32  0
-220 -32 7  0
220 32  0
220 -7  0
-221 11 31  0
221 -11  0
221 -31  0
-222 -31 -2  0
222 31  0
222 2  0
-223 -17 25  0
223 17  0
223 -25  0
-224 -25 12  0
224 25  0
224 -12  0
-225 -13 24  0
225 13  0
225 -24  0
-226 -24 -8  0
226 24  0
226 8  0
-227 -26 -10  0
227 26  0
227 10  0
-228 6 26  0
228 -6  0
228 -26  0
-229 -23 16  0
229 23  0
229 -16  0
-230 -5 23  0
230 5  0
230 -23  0
-231 -22 -4  0
231 22  0
231 4  0
-232 10 22  0
232 -10  0
232 -22  0
-233 -18 4  0
233 18  0
233 -4  0
-234 -6 18  0
234 6  0
234 -18  0
-235 -11 19  0
235 11  0
235 -19  0
-236 -19 1  0
236 19  0
236 -1  0
-237 -21 13  0
237 21  0
237 -13  0
-238 -9 21  0
238 9  0
238 -21  0
-239 -20 10  0
239 20  0
239 -10  0
-240 -15 20  0
240 15  0
240 -20  0
241 47 -15  0
-241 -47  0
-241 15  0
242 -16 -47  0
-242 16  0
-242 47  0
243 7 -46  0
-243 -7  0
-243 46  0
244 46 -13  0
-244 -46  0
-244 13  0
-245 11 44  0
245 -11  0
245 -44  0
-246 -44 -16  0
246 44  0
246 16  0
-247 -14 45  0
247 14  0
247 -45  0
-248 -45 12  0
248 45  0
248 -12  0
-249 -1 51  0
249 1  0
249 -51  0
-250 -51 -4  0
250 51  0
250 4  0
-251 -50 -10  0
251 50  0
251 10  0
-252 3 50  0
252 -3  0
252 -50  0
253 48 -11  0
-253 -48  0
-253 11  0
254 -5 -48  0
-254 5  0
-254 48  0
255 49 -15  0
-255 -49  0
-255 15  0
256 16 -49  0
-256 -16  0
-256 49  0
-257 -35 6  0
257 35  0
257 -6  0
-258 5 35  0
258 -5  0
258 -35  0
-259 14 36  0
259 -14  0
259 -36  0
-260 -36 11  0
260 36  0
260 -11  0
-261 -39 15  0
261 39  0
261 -15  0
-262 14 39  0
262 -14  0
262 -39  0
-263 -8 37  0
263 8  0
263 -37  0
-264 -37 -12  0
264 37  0
264 12  0
-265 -38 -17  0
265 38  0
265 17  0
-266 13 38  0
266 -13  0
266 -38  0
-267 -8 43  0
267 8  0
267 -43  0
-268 -43 3  0
268 43  0
268 -3  0
-269 -42 9  0
269 42  0
269 -9  0
-270 -17 42  0
270 17  0
270 -42  0
-271 -41 15  0
271 41  0
271 -15  0
-272 -8 41  0
272 8  0
272 -41  0
-273 13 40  0
273 -13  0
273 -40  0
-274 -40 14  0
274 40  0
274 -14  0
-275 -5 16  0
275 5  0
275 -16  0
-276 -16 5  0
276 16  0
276 -5  0
-277 -10 -1  0
277 10  0
277 1  0
-278 1 10  0
278 -1  0
278 -10  0
279 -6 -17  0
-279 6  0
-279 17  0
280 -6 -8  0
-280 6  0
-280 8  0
281 8 6  0
-281 -8  0
-281 -6  0
-282 -2 12  0
282 2  0
282 -12  0
-283 -12 2  0
283 12  0
283 -2  0
-284 5 6  0
284 -5  0
284 -6  0
-285 -6 -5  0
285 6  0
285 5  0
-286 86 87  0
286 -86  0
286 -87  0
287 -88 -89  0
-287 88  0
-287 89  0
-288 92 93  0
288 -92  0
288 -93  0
-289 94 95  0
289 -94  0
289 -95  0
-290 96 97  0
290 -96  0
290 -97  0
-291 98 99  0
291 -98  0
291 -99  0
292 -100 -101  0
-292 100  0
-292 101  0
293 -103 -104  0
-293 103  0
-293 104  0
294 -105 -106  0
-294 105  0
-294 106  0
295 -107 -108  0
-295 107  0
-295 108  0
-296 109 110  0
296 -109  0
296 -110  0
297 -111 -112  0
-297 111  0
-297 112  0
-298 113 114  0
298 -113  0
298 -114  0
-299 116 117  0
299 -116  0
299 -117  0
-300 119 120  0
300 -119  0
300 -120  0
301 -121 -122  0
-301 121  0
-301 122  0
-302 123 124  0
302 -123  0
302 -124  0
-303 125 126  0
303 -125  0
303 -126  0
-304 127 128  0
304 -127  0
304 -128  0
-305 130 131  0
305 -130  0
305 -131  0
-306 132 133  0
306 -132  0
306 -133  0
307 -15 -134  0
-307 15  0
-307 134  0
308 15 134  0
-308 -15  0
-308 -134  0
-309 135 136  0
309 -135  0
309 -136  0
-310 137 138  0
310 -137  0
310 -138  0
311 -139 -140  0
-311 139  0
-311 140  0
312 -141 -142  0
-312 141  0
-312 142  0
313 -143 -144  0
-313 143  0
-313 144  0
314 -145 -146  0
-314 145  0
-314 146  0
315 -147 -148  0
-315 147  0
-315 148  0
-316 149 150  0
316 -149  0
316 -150  0
-317 151 152  0
317 -151  0
317 -152  0
-318 153 154  0
318 -153  0
318 -154  0
-319 155 156  0
319 -155  0
319 -156  0
320 -157 -158  0
-320 157  0
-320 158  0
321 -159 -160  0
-321 159  0
-321 160  0
322 -161 -162  0
-322 161  0
-322 162  0
323 -163 -164  0
-323 163  0
-323 164  0
-324 165 166  0
324 -165  0
324 -166  0
-325 167 168  0
325 -167  0
325 -168  0
326 -169 -170  0
-326 169  0
-326 170  0
327 -171 -172  0
-327 171  0
-327 172  0
328 -173 -174  0
-328 173  0
-328 174  0
329 -175 -176  0
-329 175  0
-329 176  0
330 -177 -178  0
-330 177  0
-330 178  0
331 -179 -180  0
-331 179  0
-331 180  0
332 -181 -182  0
-332 181  0
-332 182  0
333 -183 -184  0
-333 183  0
-333 184  0
334 -185 -186  0
-334 185  0
-334 186  0
335 -187 -188  0
-335 187  0
-335 188  0
336 -189 -190  0
-336 189  0
-336 190  0
-337 191 192  0
337 -191  0
337 -192  0
-338 193 194  0
338 -193  0
338 -194  0
339 -195 -196  0
-339 195  0
-339 196  0
340 -197 -198  0
-340 197  0
-340 198  0
-341 199 200  0
341 -199  0
341 -200  0
-342 201 202  0
342 -201  0
342 -202  0
-343 203 204  0
343 -203  0
343 -204  0
-344 205 206  0
344 -205  0
344 -206  0
-345 207 208  0
345 -207  0
345 -208  0
-346 209 210  0
346 -209  0
346 -210  0
-347 211 212  0
347 -211  0
347 -212  0
-348 213 214  0
348 -213  0
348 -214  0
349 -215 -216  0
-349 215  0
-349 216  0
350 -217 -218  0
-350 217  0
-350 218  0
351 -219 -220  0
-351 219  0
-351 220  0
352 -221 -222  0
-352 221  0
-352 222  0
353 -223 -224  0
-353 223  0
-353 224  0
354 -225 -226  0
-354 225  0
-354 226  0
355 -227 -228  0
-355 227  0
-355 228  0
356 -229 -230  0
-356 229  0
-356 230  0
357 -231 -232  0
-357 231  0
-357 232  0
358 -233 -234  0
-358 233  0
-358 234  0
359 -235 -236  0
-359 235  0
-359 236  0
360 -237 -238  0
-360 237  0
-360 238  0
361 -239 -240  0
-361 239  0
-361 240  0
-362 241 242  0
362 -241  0
362 -242  0
-363 243 244  0
363 -243  0
363 -244  0
364 -245 -246  0
-364 245  0
-364 246  0
365 -247 -248  0
-365 247  0
-365 248  0
366 -249 -250  0
-366 249  0
-366 250  0
367 -251 -252  0
-367 251  0
-367 252  0
-368 253 254  0
368 -253  0
368 -254  0
-369 255 256  0
369 -255  0
369 -256  0
370 -257 -258  0
-370 257  0
-370 258  0
371 -259 -260  0
-371 259  0
-371 260  0
372 -261 -262  0
-372 261  0
-372 262  0
373 -263 -264  0
-373 263  0
-373 264  0
374 -265 -266  0
-374 265  0
-374 266  0
375 -267 -268  0
-375 267  0
-375 268  0
376 -269 -270  0
-376 269  0
-376 270  0
377 -271 -272  0
-377 271  0
-377 272  0
378 -273 -274  0
-378 273  0
-378 274  0
379 -275 -276  0
-379 275  0
-379 276  0
380 -277 -278  0
-380 277  0
-380 278  0
-381 280 281  0
381 -280  0
381 -281  0
382 -282 -283  0
-382 282  0
-382 283  0
383 -284 -285  0
-383 284  0
-383 285  0
-384 -12 287  0
384 12  0
384 -287  0
385 -12 -288  0
-385 12  0
-385 288  0
-386 289 290  0
386 -289  0
386 -290  0
387 -15 -291  0
-387 15  0
-387 291  0
388 15 -291  0
-388 -15  0
-388 291  0
-389 17 292  0
389 -17  0
389 -292  0
390 -293 -294  0
-390 293  0
-390 294  0
-391 -4 295  0
391 4  0
391 -295  0
-392 4 295  0
392 -4  0
392 -295  0
393 17 -298  0
-393 -17  0
-393 298  0
394 17 -300  0
-394 -17  0
-394 300  0
-395 7 302  0
395 -7  0
395 -302  0
-396 -7 302  0
396 7  0
396 -302  0
-397 -13 304  0
397 13  0
397 -304  0
-398 13 304  0
398 -13  0
398 -304  0
-399 12 305  0
399 -12  0
399 -305  0
-400 -12 305  0
400 12  0
400 -305  0
-401 307 308  0
401 -307  0
401 -308  0
-402 -2 310  0
402 2  0
402 -310  0
-403 2 310  0
403 -2  0
403 -310  0
404 3 -310  0
-404 -3  0
-404 310  0
-405 311 312  0
405 -311  0
405 -312  0
-406 -311 -312  0
406 311  0
406 312  0
-407 313 314  0
407 -313  0
407 -314  0
-408 316 317  0
408 -316  0
408 -317  0
-409 -316 -317  0
409 316  0
409 317  0
-410 318 319  0
410 -318  0
410 -319  0
-411 -319 -318  0
411 319  0
411 318  0
-412 320 321  0
412 -320  0
412 -321  0
-413 -321 -320  0
413 321  0
413 320  0
-414 322 323  0
414 -322  0
414 -323  0
-415 -322 -323  0
415 322  0
415 323  0
-416 324 325  0
416 -324  0
416 -325  0
-417 -324 -325  0
417 324  0
417 325  0
-418 326 327  0
418 -326  0
418 -327  0
-419 -327 -326  0
419 327  0
419 326  0
420 -328 -329  0
-420 328  0
-420 329  0
421 329 328  0
-421 -329  0
-421 -328  0
422 -330 -331  0
-422 330  0
-422 331  0
423 -333 -334  0
-423 333  0
-423 334  0
424 334 333  0
-424 -334  0
-424 -333  0
425 -335 -336  0
-425 335  0
-425 336  0
426 336 335  0
-426 -336  0
-426 -335  0
427 -337 -338  0
-427 337  0
-427 338  0
428 337 338  0
-428 -337  0
-428 -338  0
429 -339 -340  0
-429 339  0
-429 340  0
430 340 339  0
-430 -340  0
-430 -339  0
431 -341 -342  0
-431 341  0
-431 342  0
432 342 341  0
-432 -342  0
-432 -341  0
433 -343 -344  0
-433 343  0
-433 344  0
434 343 344  0
-434 -343  0
-434 -344  0
-435 345 346  0
435 -345  0
435 -346  0
-436 -346 -345  0
436 346  0
436 345  0
-437 347 348  0
437 -347  0
437 -348  0
-438 -348 -347  0
438 348  0
438 347  0
-439 349 350  0
439 -349  0
439 -350  0
-440 -350 -349  0
440 350  0
440 349  0
-441 351 352  0
441 -351  0
441 -352  0
-442 -351 -352  0
442 351  0
442 352  0
443 -353 -354  0
-443 353  0
-443 354  0
-444 356 357  0
444 -356  0
444 -357  0
-445 -357 -356  0
445 357  0
445 356  0
-446 358 359  0
446 -358  0
446 -359  0
-447 -359 -358  0
447 359  0
447 358  0
-448 360 361  0
448 -360  0
448 -361  0
-449 -361 -360  0
449 361  0
449 360  0
-450 362 363  0
450 -362  0
450 -363  0
-451 -362 -363  0
451 362  0
451 363  0
-452 364 365  0
452 -364  0
452 -365  0
-453 -365 -364  0
453 365  0
453 364  0
-454 366 367  0
454 -366  0
454 -367  0
-455 -366 -367  0
455 366  0
455 367  0
-456 368 369  0
456 -368  0
456 -369  0
-457 -368 -369  0
457 368  0
457 369  0
458 -370 -371  0
-458 370  0
-458 371  0
459 370 371  0
-459 -370  0
-459 -371  0
-460 373 374  0
460 -373  0
460 -374  0
461 -375 -376  0
-461 375  0
-461 376  0
462 376 375  0
-462 -376  0
-462 -375  0
463 -377 -378  0
-463 377  0
-463 378  0
464 377 378  0
-464 -377  0
-464 -378  0
-465 379 380  0
465 -379  0
465 -380  0
466 17 -381  0
-466 -17  0
-466 381  0
467 -90 -384  0
-467 90  0
-467 384  0
-468 91 385  0
468 -91  0
468 -385  0
469 7 -387  0
-469 -7  0
-469 387  0
470 -7 -388  0
-470 7  0
-470 388  0
471 -389 -102  0
-471 389  0
-471 102  0
-472 -5 390  0
472 5  0
472 -390  0
-473 -17 391  0
473 17  0
473 -391  0
-474 17 392  0
474 -17  0
474 -392  0
-475 5 390  0
475 -5  0
475 -390  0
-476 393 115  0
476 -393  0
476 -115  0
-477 118 394  0
477 -118  0
477 -394  0
478 10 -395  0
-478 -10  0
-478 395  0
479 -10 -396  0
-479 10  0
-479 396  0
480 6 -397  0
-480 -6  0
-480 397  0
481 -6 -398  0
-481 6  0
-481 398  0
482 11 -399  0
-482 -11  0
-482 399  0
483 -11 -400  0
-483 11  0
-483 400  0
484 -401 -309  0
-484 401  0
-484 309  0
-485 -3 402  0
485 3  0
485 -402  0
486 -3 -403  0
-486 3  0
-486 403  0
487 -405 -406  0
-487 405  0
-487 406  0
-488 407 315  0
488 -407  0
488 -315  0
-489 -315 -407  0
489 315  0
489 407  0
490 -408 -409  0
-490 408  0
-490 409  0
491 -410 -411  0
-491 410  0
-491 411  0
492 -412 -413  0
-492 412  0
-492 413  0
493 -414 -415  0
-493 414  0
-493 415  0
494 -416 -417  0
-494 416  0
-494 417  0
495 -418 -419  0
-495 418  0
-495 419  0
-496 420 421  0
496 -420  0
496 -421  0
497 -422 -332  0
-497 422  0
-497 332  0
498 332 422  0
-498 -332  0
-498 -422  0
-499 423 424  0
499 -423  0
499 -424  0
-500 425 426  0
500 -425  0
500 -426  0
-501 427 428  0
501 -427  0
501 -428  0
-502 429 430  0
502 -429  0
502 -430  0
-503 431 432  0
503 -431  0
503 -432  0
-504 433 434  0
504 -433  0
504 -434  0
505 -435 -436  0
-505 435  0
-505 436  0
506 -437 -438  0
-506 437  0
-506 438  0
507 -439 -440  0
-507 439  0
-507 440  0
508 -441 -442  0
-508 441  0
-508 442  0
-509 443 355  0
509 -443  0
509 -355  0
-510 -443 -355  0
510 443  0
510 355  0
511 -444 -445  0
-511 444  0
-511 445  0
512 -446 -447  0
-512 446  0
-512 447  0
513 -448 -449  0
-513 448  0
-513 449  0
514 -450 -451  0
-514 450  0
-514 451  0
515 -452 -453  0
-515 452  0
-515 453  0
516 -454 -455  0
-516 454  0
-516 455  0
517 -456 -457  0
-517 456  0
-517 457  0
-518 458 459  0
518 -458  0
518 -459  0
519 -372 -460  0
-519 372  0
-519 460  0
520 372 460  0
-520 -372  0
-520 -460  0
-521 461 462  0
521 -461  0
521 -462  0
-522 463 464  0
522 -463  0
522 -464  0
-523 279 466  0
523 -279  0
523 -466  0
524 5 -467  0
-524 -5  0
-524 467  0
525 -5 -467  0
-525 5  0
-525 467  0
526 -5 -468  0
-526 5  0
-526 468  0
527 5 -468  0
-527 -5  0
-527 468  0
-528 469 470  0
528 -469  0
528 -470  0
529 16 -471  0
-529 -16  0
-529 471  0
530 -16 -471  0
-530 16  0
-530 471  0
531 -473 -474  0
-531 473  0
-531 474  0
-532 -5 476  0
532 5  0
532 -476  0
-533 5 476  0
533 -5  0
533 -476  0
534 -299 -477  0
-534 299  0
-534 477  0
-535 478 479  0
535 -478  0
535 -479  0
-536 480 481  0
536 -480  0
536 -481  0
-537 482 483  0
537 -482  0
537 -483  0
538 -306 -484  0
-538 306  0
-538 484  0
539 15 -485  0
-539 -15  0
-539 485  0
-540 486 404  0
540 -486  0
540 -404  0
541 -4 -484  0
-541 4  0
-541 484  0
542 4 -484  0
-542 -4  0
-542 484  0
543 -488 -489  0
-543 488  0
-543 489  0
544 -490 -491  0
-544 490  0
-544 491  0
545 -492 -493  0
-545 492  0
-545 493  0
-546 494 495  0
546 -494  0
546 -495  0
-547 497 498  0
547 -497  0
547 -498  0
-548 499 500  0
548 -499  0
548 -500  0
-549 501 502  0
549 -501  0
549 -502  0
550 -503 -504  0
-550 503  0
-550 504  0
-551 505 506  0
551 -505  0
551 -506  0
-552 507 508  0
552 -507  0
552 -508  0
553 -509 -510  0
-553 509  0
-553 510  0
554 -512 -513  0
-554 512  0
-554 513  0
-555 514 515  0
555 -514  0
555 -515  0
-556 516 517  0
556 -516  0
556 -517  0
-557 519 520  0
557 -519  0
557 -520  0
-558 521 522  0
558 -521  0
558 -522  0
559 -16 -523  0
-559 16  0
-559 523  0
560 16 -523  0
-560 -16  0
-560 523  0
-561 -11 524  0
561 11  0
561 -524  0
-562 11 525  0
562 -11  0
562 -525  0
563 11 -526  0
-563 -11  0
-563 526  0
564 -11 -527  0
-564 11  0
-564 527  0
565 -386 -528  0
-565 386  0
-565 528  0
566 386 528  0
-566 -386  0
-566 -528  0
-567 4 529  0
567 -4  0
567 -529  0
-568 -4 530  0
568 4  0
568 -530  0
-569 5 531  0
569 -5  0
569 -531  0
-570 -5 531  0
570 5  0
570 -531  0
-571 531 -296  0
571 -531  0
571 296  0
572 6 -532  0
-572 -6  0
-572 532  0
573 -6 -533  0
-573 6  0
-573 533  0
574 14 -534  0
-574 -14  0
-574 534  0
575 -14 -534  0
-575 14  0
-575 534  0
576 297 -534  0
-576 -297  0
-576 534  0
577 -15 -540  0
-577 15  0
-577 540  0
-578 487 543  0
578 -487  0
578 -543  0
-579 545 546  0
579 -545  0
579 -546  0
-580 -545 -546  0
580 545  0
580 546  0
581 -496 -547  0
-581 496  0
-581 547  0
-582 549 550  0
582 -549  0
582 -550  0
-583 -550 -549  0
583 550  0
583 549  0
-584 551 552  0
584 -551  0
584 -552  0
-585 -551 -552  0
585 551  0
585 552  0
586 -553 -511  0
-586 553  0
-586 511  0
-587 555 556  0
587 -555  0
587 -556  0
-588 -556 -555  0
588 556  0
588 555  0
-589 518 557  0
589 -518  0
589 -557  0
-590 465 -528  0
590 -465  0
590 528  0
-591 -465 528  0
591 465  0
591 -528  0
592 -4 -559  0
-592 4  0
-592 559  0
593 4 -560  0
-593 -4  0
-593 560  0
594 -561 -562  0
-594 561  0
-594 562  0
-595 563 564  0
595 -563  0
595 -564  0
-596 565 566  0
596 -565  0
596 -566  0
597 -567 -568  0
-597 567  0
-597 568  0
598 -472 -569  0
-598 472  0
-598 569  0
599 -475 -570  0
-599 475  0
-599 570  0
-600 572 573  0
600 -572  0
600 -573  0
-601 539 577  0
601 -539  0
601 -577  0
-602 578 544  0
602 -578  0
602 -544  0
-603 -544 -578  0
603 544  0
603 578  0
604 -579 -580  0
-604 579  0
-604 580  0
-605 581 548  0
605 -581  0
605 -548  0
-606 -581 -548  0
606 581  0
606 548  0
607 -582 -583  0
-607 582  0
-607 583  0
608 -584 -585  0
-608 584  0
-608 585  0
-609 586 554  0
609 -586  0
609 -554  0
-610 -586 -554  0
610 586  0
610 554  0
611 -587 -588  0
-611 587  0
-611 588  0
-612 589 558  0
612 -589  0
612 -558  0
-613 -589 -558  0
613 589  0
613 558  0
614 -590 -591  0
-614 590  0
-614 591  0
-615 592 593  0
615 -592  0
615 -593  0
616 3 -594  0
-616 -3  0
-616 594  0
617 -3 594  0
-617 3  0
-617 -594  0
618 -595 287  0
-618 595  0
-618 -287  0
-619 6 598  0
619 -6  0
619 -598  0
-620 -6 599  0
620 6  0
620 -599  0
621 -14 -600  0
-621 14  0
-621 600  0
622 14 -600  0
-622 -14  0
-622 600  0
623 4 -601  0
-623 -4  0
-623 601  0
624 -4 -601  0
-624 4  0
-624 601  0
625 -602 -603  0
-625 602  0
-625 603  0
626 -605 -606  0
-626 605  0
-626 606  0
627 -609 -610  0
-627 609  0
-627 610  0
628 -612 -613  0
-628 612  0
-628 613  0
-629 3 595  0
629 -3  0
629 -595  0
-630 -3 -595  0
630 3  0
630 595  0
-631 287 594  0
631 -287  0
631 -594  0
-632 616 617  0
632 -616  0
632 -617  0
633 -619 -620  0
-633 619  0
-633 620  0
-634 621 574  0
634 -621  0
634 -574  0
-635 575 622  0
635 -575  0
635 -622  0
-636 623 541  0
636 -623  0
636 -541  0
-637 542 624  0
637 -542  0
637 -624  0
638 -625 -604  0
-638 625  0
-638 604  0
-639 626 607  0
639 -626  0
639 -607  0
640 -608 -627  0
-640 608  0
-640 627  0
-641 611 628  0
641 -611  0
641 -628  0
642 -629 -630  0
-642 629  0
-642 630  0
643 -17 -632  0
-643 17  0
-643 632  0
644 17 632  0
-644 -17  0
-644 -632  0
-645 633 296  0
645 -633  0
645 -296  0
646 -15 -634  0
-646 15  0
-646 634  0
647 15 -635  0
-647 -15  0
-647 635  0
648 -15 -636  0
-648 15  0
-648 636  0
649 15 -637  0
-649 -15  0
-649 637  0
-650 638 639  0
650 -638  0
650 -639  0
-651 -638 -639  0
651 638  0
651 639  0
-652 640 641  0
652 -640  0
652 -641  0
-653 -640 -641  0
653 640  0
653 641  0
-654 -17 642  0
654 17  0
654 -642  0
-655 17 -642  0
655 -17  0
655 642  0
-656 643 644  0
656 -643  0
656 -644  0
657 -645 -571  0
-657 645  0
-657 571  0
-658 646 647  0
658 -646  0
658 -647  0
-659 648 649  0
659 -648  0
659 -649  0
660 -650 -651  0
-660 650  0
-660 651  0
661 -652 -653  0
-661 652  0
-661 653  0
662 -654 -655  0
-662 654  0
-662 655  0
663 -287 -656  0
-663 287  0
-663 656  0
664 -297 -658  0
-664 297  0
-664 658  0
665 -659 306  0
-665 659  0
-665 -306  0
666 -660 -661  0
-666 660  0
-666 661  0
-667 662 -287  0
667 -662  0
667 287  0
-668 663 618  0
668 -663  0
668 -618  0
-669 664 576  0
669 -664  0
669 -576  0
-670 538 665  0
670 -538  0
670 -665  0
671 -667 -631  0
-671 667  0
-671 631  0
-672 668 596  0
672 -668  0
672 -596  0
-673 614 671  0
673 -614  0
673 -671  0
674 11 -672  0
-674 -11  0
-674 672  0
675 -11 672  0
-675 11  0
-675 -672  0
-676 -286 -672  0
676 286  0
676 672  0
-677 -672 -657  0
677 672  0
677 657  0
-678 673 -657  0
678 -673  0
678 657  0
-679 674 675  0
679 -674  0
679 -675  0
-680 -6 679  0
680 6  0
680 -679  0
-681 6 -679  0
681 -6  0
681 679  0
682 -680 -681  0
-682 680  0
-682 681  0
-683 286 682  0
683 -286  0
683 -682  0
684 -683 -676  0
-684 683  0
-684 676  0
-685 684 597  0
685 -684  0
685 -597  0
-686 -597 -684  0
686 597  0
686 684  0
-687 615 -684  0
687 -615  0
687 684  0
-688 684 -615  0
688 -684  0
688 615  0
689 -685 -686  0
-689 685  0
-689 686  0
690 -687 -688  0
-690 687  0
-690 688  0
-691 689 657  0
691 -689  0
691 -657  0
-692 657 690  0
692 -657  0
692 -690  0
693 -691 -677  0
-693 691  0
-693 677  0
694 -678 -692  0
-694 678  0
-694 692  0
-695 693 669  0
695 -693  0
695 -669  0
-696 1 693  0
696 -1  0
696 -693  0
-697 -1 693  0
697 1  0
697 -693  0
-698 -301 693  0
698 301  0
698 -693  0
-699 -301 694  0
699 301  0
699 -694  0
700 1 -694  0
-700 -1  0
-700 694  0
701 -1 -694  0
-701 1  0
-701 694  0
-702 694 669  0
702 -694  0
702 -669  0
-703 15 696  0
703 -15  0
703 -696  0
-704 -15 697  0
704 15  0
704 -697  0
-705 15 697  0
705 -15  0
705 -697  0
-706 -15 696  0
706 15  0
706 -696  0
-707 -15 700  0
707 15  0
707 -700  0
-708 15 701  0
708 -15  0
708 -701  0
-709 -15 701  0
709 15  0
709 -701  0
-710 15 700  0
710 -15  0
710 -700  0
711 -703 -704  0
-711 703  0
-711 704  0
712 -705 -706  0
-712 705  0
-712 706  0
713 -707 -708  0
-713 707  0
-713 708  0
714 -709 -710  0
-714 709  0
-714 710  0
-715 711 301  0
715 -711  0
715 -301  0
-716 712 301  0
716 -712  0
716 -301  0
-717 713 301  0
717 -713  0
717 -301  0
718 -714 -382  0
-718 714  0
-718 382  0
-719 715 535  0
719 -715  0
719 -535  0
720 -716 -698  0
-720 716  0
-720 698  0
-721 -535 715  0
721 535  0
721 -715  0
722 -699 -717  0
-722 699  0
-722 717  0
-723 718 -535  0
723 -718  0
723 535  0
-724 718 535  0
724 -718  0
724 -535  0
-725 -535 720  0
725 535  0
725 -720  0
-726 535 720  0
726 -535  0
726 -720  0
-727 722 535  0
727 -722  0
727 -535  0
-728 -535 722  0
728 535  0
728 -722  0
729 -719 -725  0
-729 719  0
-729 725  0
730 -721 -726  0
-730 721  0
-730 726  0
731 -727 -723  0
-731 727  0
-731 723  0
732 -724 -728  0
-732 724  0
-732 728  0
-733 729 -669  0
733 -729  0
733 669  0
-734 -12 730  0
734 12  0
734 -730  0
-735 12 730  0
735 -12  0
735 -730  0
-736 299 730  0
736 -299  0
736 -730  0
737 12 -731  0
-737 -12  0
-737 731  0
738 -12 -731  0
-738 12  0
-738 731  0
-739 299 731  0
739 -299  0
739 -731  0
-740 732 -669  0
740 -732  0
740 669  0
741 -695 -733  0
-741 695  0
-741 733  0
-742 129 734  0
742 -129  0
742 -734  0
-743 -129 735  0
743 129  0
743 -735  0
-744 -129 734  0
744 129  0
744 -734  0
-745 129 735  0
745 -129  0
745 -735  0
-746 129 737  0
746 -129  0
746 -737  0
-747 -129 738  0
747 129  0
747 -738  0
-748 737 -129  0
748 -737  0
748 129  0
-749 129 738  0
749 -129  0
749 -738  0
750 -702 -740  0
-750 702  0
-750 740  0
-751 741 303  0
751 -741  0
751 -303  0
752 -742 -743  0
-752 742  0
-752 743  0
753 -744 -745  0
-753 744  0
-753 745  0
-754 -7 741  0
754 7  0
754 -741  0
-755 7 741  0
755 -7  0
755 -741  0
-756 741 -670  0
756 -741  0
756 670  0
757 -746 -747  0
-757 746  0
-757 747  0
758 -748 -749  0
-758 748  0
-758 749  0
-759 7 750  0
759 -7  0
759 -750  0
-760 -7 750  0
760 7  0
760 -750  0
-761 303 750  0
761 -303  0
761 -750  0
-762 750 -670  0
762 -750  0
762 670  0
-763 752 -299  0
763 -752  0
763 299  0
-764 753 -299  0
764 -753  0
764 299  0
765 -757 -383  0
-765 757  0
-765 383  0
-766 758 -299  0
766 -758  0
766 299  0
767 -763 -736  0
-767 763  0
-767 736  0
-768 -536 764  0
768 536  0
768 -764  0
-769 -536 765  0
769 536  0
769 -765  0
770 -766 -739  0
-770 766  0
-770 739  0
-771 536 767  0
771 -536  0
771 -767  0
-772 536 770  0
772 -536  0
772 -770  0
773 -771 -768  0
-773 771  0
-773 768  0
774 -769 -772  0
-774 769  0
-774 772  0
-775 7 773  0
775 -7  0
775 -773  0
-776 -7 773  0
776 7  0
776 -773  0
-777 303 773  0
777 -303  0
777 -773  0
-778 -7 774  0
778 7  0
778 -774  0
-779 7 774  0
779 -7  0
779 -774  0
-780 303 774  0
780 -303  0
780 -774  0
781 -775 -754  0
-781 775  0
-781 754  0
782 -776 -755  0
-782 776  0
-782 755  0
783 -778 -759  0
-783 778  0
-783 759  0
784 -760 -779  0
-784 760  0
-784 779  0
-785 -5 781  0
785 5  0
785 -781  0
-786 5 782  0
786 -5  0
786 -782  0
-787 -5 782  0
787 5  0
787 -782  0
-788 5 781  0
788 -5  0
788 -781  0
-789 5 783  0
789 -5  0
789 -783  0
-790 -5 784  0
790 5  0
790 -784  0
-791 -5 783  0
791 5  0
791 -783  0
-792 5 784  0
792 -5  0
792 -784  0
793 -785 -786  0
-793 785  0
-793 786  0
794 -787 -788  0
-794 787  0
-794 788  0
795 -789 -790  0
-795 789  0
-795 790  0
796 -791 -792  0
-796 791  0
-796 792  0
-797 793 -303  0
797 -793  0
797 303  0
-798 794 -303  0
798 -794  0
798 303  0
-799 795 -303  0
799 -795  0
799 303  0
-800 796 -303  0
800 -796  0
800 303  0
801 -751 -797  0
-801 751  0
-801 797  0
802 -777 -798  0
-802 777  0
-802 798  0
803 -799 -761  0
-803 799  0
-803 761  0
804 -800 -780  0
-804 800  0
-804 780  0
-805 801 537  0
805 -801  0
805 -537  0
-806 -537 802  0
806 537  0
806 -802  0
-807 803 537  0
807 -803  0
807 -537  0
-808 -537 804  0
808 537  0
808 -804  0
809 -805 -806  0
-809 805  0
-809 806  0
810 -807 -808  0
-810 807  0
-810 808  0
-811 809 670  0
811 -809  0
811 -670  0
-812 810 670  0
812 -810  0
812 -670  0
813 -811 -756  0
-813 811  0
-813 756  0
814 -812 -762  0
-814 812  0
-814 762  0
-815 813 666  0
815 -813  0
815 -666  0
-816 814 -666  0
816 -814  0
816 666  0
817 -815 -816  0
-817 815  0
-817 816  0
